200
150
100
99
99
98
98
98
96
95
95
94
94
94
93
93
92
92
89
89
89
89
88
88
88
88
87
87
87
87
86
86
86
85
84
84
83
83
83
83
83
82
81
80
80
80
79
79
79
78
78
77
77
77
77
77
77
75
74
74
74
73
73
72
72
71
71
71
71
71
71
70
69
68
68
67
66
66
66
65
65
65
65
65
64
64
64
64
62
62
62
62
61
61
61
60
60
60
59
59
59
59
58
58
58
58
57
57
57
57
56
56
56
55
54
54
54
54
54
53
53
53
53
52
51
50
50
50
49
48
48
48
48
48
48
47
47
45
45
45
44
44
43
43
43
43
43
42
42
41
41
41
40
40
40
40
40
39
39
38
38
38
37
37
36
36
36
35
35
34
34
33
33
32
32
31
31
31
30
29
29
28
27
26
25
25
25
24
24
24
24
24
23
22
22
22
21
21
21
20
20
20
